(declare-fun var0 () String)
(declare-fun var1 () String)
(declare-fun var2 () String)
(declare-fun var3 () String)
(declare-fun var4 () String)
(declare-fun var5 () String)
(declare-fun var6 () String)
(declare-fun var7 () String)
(declare-fun var8 () String)
(declare-fun var9 () String)
(assert (= var0 (Concat "&W9dN" (Concat var1 (Concat var2 (Concat var3 (Concat var4 "")))))))
(assert (= var5 (Concat "6e/>s" (Concat var6 (Concat var7 (Concat var8 (Concat var9 "")))))))
(assert (= var0 var5))
(check-sat)